Solver command line: ['C:\\gurobi1002\\win64\\bin\\gurobi.bat']

Set parameter Username
Academic license - for non-commercial use only - expires 2024-08-20
Read LP format model from file C:\Users\mhafeman\AppData\Local\Temp\tmpnxsyqgbs.pyomo.lp
Reading time = 1.36 seconds
obj: 297841 rows, 262799 columns, 709547 nonzeros
Gurobi Optimizer version 10.0.2 build v10.0.2rc0 (win64)

CPU model: AMD Ryzen 7 3800X 8-Core Processor, instruction set [SSE2|AVX|AVX2]
Thread count: 8 physical cores, 16 logical processors, using up to 16 threads

Optimize a model with 297841 rows, 262799 columns and 709547 nonzeros
Model fingerprint: 0x1b2eca66
Model has 8759 quadratic constraints
Variable types: 201480 continuous, 61319 integer (43800 binary)
Coefficient statistics:
  Matrix range     [1e-04, 3e+02]
  QMatrix range    [1e+00, 1e+00]
  Objective range  [1e-02, 3e+02]
  Bounds range     [1e+00, 3e+00]
  RHS range        [1e-03, 1e+03]
Presolve removed 238663 rows and 194861 columns
Presolve time: 0.91s
Presolved: 59178 rows, 67938 columns, 161328 nonzeros
Variable types: 34212 continuous, 33726 integer (33726 binary)
Found heuristic solution: objective -2.84147e+07
Deterministic concurrent LP optimizer: primal and dual simplex
Showing first log only...

Warning: Markowitz tolerance tightened to 0.5
Concurrent spin time: 0.06s

Solved with dual simplex

Root relaxation: objective -4.234630e+07, 15213 iterations, 0.40 seconds (0.37 work units)

    Nodes    |    Current Node    |     Objective Bounds      |     Work
 Expl Unexpl |  Obj  Depth IntInf | Incumbent    BestBd   Gap | It/Node Time

     0     0 -4.235e+07    0  216 -2.841e+07 -4.235e+07  49.0%     -    1s
H    0     0                    -4.23411e+07 -4.235e+07  0.01%     -    2s
H    0     0                    -4.23411e+07 -4.235e+07  0.01%     -    2s
     0     0 -4.235e+07    0  230 -4.234e+07 -4.235e+07  0.01%     -    2s
H    0     0                    -4.23420e+07 -4.235e+07  0.01%     -    2s
H    0     0                    -4.23458e+07 -4.235e+07  0.00%     -    2s

Cutting planes:
  Gomory: 53
  Cover: 71
  Implied bound: 42
  Clique: 35
  MIR: 1
  Flow cover: 2
  RLT: 4
  Relax-and-lift: 5

Explored 1 nodes (20445 simplex iterations) in 2.97 seconds (2.57 work units)
Thread count was 16 (of 16 available processors)

Solution count 5: -4.23458e+07 -4.2342e+07 -4.23411e+07 ... -2.84147e+07

Optimal solution found (tolerance 1.00e-04)
Best objective -4.234583505578e+07, best bound -4.234629880925e+07, gap 0.0011%

